DIMENSION: 48
TOUR_SECTION
32 3245 3305
39 3484 2829
21 4483 3369
47 5185 3258
13 4706 2674
20 5900 3561
12 5989 2873
11 5468 2606
33 6426 3173
23 5199 2182
40 6271 2135
14 4612 2035
15 6347 2683
9 6898 1885
22 6101 1110
1 6734 1453
16 6107 669
8 7265 1268
3 5530 1424
38 7392 2244
25 4307 2322
31 7545 2801
46 6807 2993
44 7509 3239
24 1633 2809
18 7462 3590
30 7352 4506
7 7573 3716
28 7541 3981
48 3023 1942
5 3082 1644
29 3177 756
41 4985 140
2 2233 10
34 4608 1198
42 1916 1569
36 7248 3779
10 1112 2049
4 401 841
26 675 1006
35 23 2216
6 7608 4458
45 10 2676
19 7732 4723
27 7555 4819
37 7762 4595
43 7280 4899
17 7611 5184
32 3245 3305
